
Gurobi 9.5.0 (linux64) logging started Wed Nov  8 21:02:28 2023

Set parameter LogFile to value "/lustre1/scratch/348/vsc34888/JointResearch/05.Models/06.Benchmarking/G.Representative_days_based_on_Line_Benefit_NN_OC_fy_2/9n_ByStages_nc50/openStarNet_9n_ByStages_nc50.log"
Set parameter Method to value 2
Set parameter MIPFocus to value 1
Set parameter Presolve to value 2
Set parameter RINS to value 100
Set parameter MIPGap to value 0.01
Set parameter Threads to value 36
Set parameter TimeLimit to value 604800
Set parameter IterationLimit to value 760000000
Gurobi Optimizer version 9.5.0 build v9.5.0rc5 (linux64)
Thread count: 36 physical cores, 36 logical processors, using up to 36 threads
Optimize a model with 13103 rows, 7000 columns and 40958 nonzeros
Model fingerprint: 0x2cb8e188
Variable types: 6964 continuous, 36 integer (36 binary)
Coefficient statistics:
  Matrix range     [9e-04, 2e+03]
  Objective range  [1e+00, 1e+00]
  Bounds range     [4e-04, 2e+00]
  RHS range        [4e-04, 1e+00]
Presolve removed 4253 rows and 2154 columns
Presolve time: 0.06s
Presolved: 8850 rows, 4846 columns, 31360 nonzeros
Variable types: 4810 continuous, 36 integer (36 binary)
Found heuristic solution: objective 859.0459309
Root relaxation presolved: 8850 rows, 4846 columns, 31360 nonzeros

Root barrier log...

Ordering time: 0.00s

Barrier statistics:
 Dense cols : 36
 AA' NZ     : 1.191e+05
 Factor NZ  : 2.430e+05 (roughly 8 MB of memory)
 Factor Ops : 1.016e+07 (less than 1 second per iteration)
 Threads    : 36

                  Objective                Residual
Iter       Primal          Dual         Primal    Dual     Compl     Time
   0   3.73513438e+05 -4.88233953e+07  6.28e+00 4.60e+02  8.40e+03     0s
   1   5.28726589e+04 -1.40124192e+07  7.22e-01 1.64e-09  1.11e+03     0s
   2   1.41107940e+04 -1.94020426e+06  1.04e-02 9.69e-10  1.13e+02     0s
   3   5.33895453e+03 -4.05841266e+04  4.21e-13 4.62e-11  2.63e+00     0s
   4   1.07552615e+03 -8.44116180e+03  3.94e-13 8.05e-12  5.44e-01     0s
   5   6.17772227e+02 -2.99256461e+03  1.50e-13 3.04e-12  2.06e-01     0s
   6   4.31451618e+02 -2.00814015e+03  1.45e-13 2.02e-12  1.39e-01     0s
   7   2.94620266e+02 -6.81730548e+02  1.22e-13 1.82e-12  5.58e-02     0s
   8   1.52907745e+02 -1.14294363e+02  1.97e-13 1.82e-12  1.53e-02     0s
   9   1.24820265e+02  3.39007590e+01  2.08e-13 1.82e-12  5.20e-03     0s
  10   1.00073741e+02  7.49362984e+01  1.17e-12 9.09e-13  1.44e-03     0s
  11   9.56609025e+01  8.35504928e+01  7.19e-13 9.09e-13  6.92e-04     0s
  12   9.46031771e+01  8.57520506e+01  8.21e-12 9.09e-13  5.06e-04     0s
  13   9.32471643e+01  8.63845296e+01  9.32e-12 9.09e-13  3.92e-04     0s
  14   9.25988678e+01  8.66728419e+01  6.69e-12 9.09e-13  3.39e-04     0s
  15   9.02553452e+01  8.93433125e+01  2.18e-11 1.82e-12  5.21e-05     0s
  16   9.00905370e+01  8.99440263e+01  6.13e-08 1.82e-12  8.38e-06     0s
  17   9.00396694e+01  8.99628846e+01  2.84e-08 1.82e-12  4.39e-06     0s
  18   8.99989308e+01  8.99691831e+01  6.27e-09 1.82e-12  1.70e-06     0s
  19   8.99864237e+01  8.99843830e+01  4.48e-10 1.82e-12  1.17e-07     0s
  20   8.99849576e+01  8.99849555e+01  1.34e-10 9.09e-13  1.21e-10     0s
  21   8.99849561e+01  8.99849561e+01  1.91e-12 1.82e-12  1.21e-13     0s

Barrier solved model in 21 iterations and 0.34 seconds (0.24 work units)
Optimal objective 8.99849561e+01


Root relaxation: objective 8.998496e+01, 453 iterations, 0.26 seconds (0.12 work units)

    Nodes    |    Current Node    |     Objective Bounds      |     Work
 Expl Unexpl |  Obj  Depth IntInf | Incumbent    BestBd   Gap | It/Node Time

     0     0   89.98496    0    6  859.04593   89.98496  89.5%     -    0s
H    0     0                     754.7579883   89.98496  88.1%     -    0s
H    0     0                     754.1538604   97.47590  87.1%     -    0s
     0     0   97.47590    0    1  754.15386   97.47590  87.1%     -    0s
H    0     0                      98.0129931   97.47590  0.55%     -    0s

Cutting planes:
  MIR: 70

Explored 1 nodes (664 simplex iterations) in 0.53 seconds (0.33 work units)
Thread count was 36 (of 36 available processors)

Solution count 4: 98.013 754.154 754.758 859.046 

Optimal solution found (tolerance 1.00e-02)
Best objective 9.801299305684e+01, best bound 9.747590008224e+01, gap 0.5480%

Gurobi 9.5.0 (linux64) logging started Wed Nov  8 21:02:30 2023

Set parameter LogFile to value "/lustre1/scratch/348/vsc34888/JointResearch/05.Models/06.Benchmarking/G.Representative_days_based_on_Line_Benefit_NN_OC_fy_2/9n_ByStages_nc50/openStarNet_9n_ByStages_nc50.log"
Set parameter Method to value 2
Set parameter MIPFocus to value 1
Set parameter Presolve to value 2
Set parameter RINS to value 100
Set parameter MIPGap to value 0.01
Set parameter Threads to value 36
Set parameter TimeLimit to value 604800
Set parameter IterationLimit to value 760000000
No parameters matching 'relax_integrality' found
Gurobi Optimizer version 9.5.0 build v9.5.0rc5 (linux64)
Thread count: 36 physical cores, 36 logical processors, using up to 36 threads
Optimize a model with 13103 rows, 6964 columns and 33722 nonzeros
Model fingerprint: 0x7a5e25ec
Coefficient statistics:
  Matrix range     [9e-04, 2e+03]
  Objective range  [1e+00, 1e+00]
  Bounds range     [4e-04, 2e+00]
  RHS range        [4e-04, 2e+01]
Presolve removed 11353 rows and 3885 columns
Presolve time: 0.01s
Presolved: 1750 rows, 3079 columns, 6629 nonzeros

Ordering time: 0.00s

Barrier statistics:
 AA' NZ     : 4.600e+03
 Factor NZ  : 1.785e+04 (roughly 2 MB of memory)
 Factor Ops : 2.194e+05 (less than 1 second per iteration)
 Threads    : 1

                  Objective                Residual
Iter       Primal          Dual         Primal    Dual     Compl     Time
   0   3.94380878e+05 -2.84083205e+07  3.38e+00 1.82e-12  9.89e+03     0s
   1   6.14454084e+04 -5.57898918e+06  3.76e-01 7.61e-12  1.19e+03     0s
   2   1.67418060e+04 -9.27236012e+05  1.53e-02 5.03e-12  1.45e+02     0s
   3   6.12798450e+03 -3.95170536e+04  3.77e-14 4.09e-12  6.75e+00     0s
   4   1.10859353e+03 -7.44738035e+03  1.08e-13 3.64e-12  1.27e+00     0s
   5   5.88696303e+02 -1.83923747e+03  6.31e-14 1.82e-12  3.59e-01     0s
   6   3.32067212e+02 -5.45364255e+02  1.17e-13 1.82e-12  1.30e-01     0s
   7   2.32179046e+02 -1.37274283e+02  1.13e-13 1.82e-12  5.47e-02     0s
   8   1.21480638e+02  5.71286628e+01  5.04e-13 1.82e-12  9.52e-03     0s
   9   1.06039642e+02  8.64040965e+01  2.12e-12 1.82e-12  2.91e-03     0s
  10   9.99304141e+01  9.44865974e+01  2.95e-12 1.82e-12  8.06e-04     0s
  11   9.84375681e+01  9.70153824e+01  2.02e-12 1.82e-12  2.10e-04     0s
  12   9.81223392e+01  9.77350221e+01  7.22e-12 1.82e-12  5.73e-05     0s
  13   9.80204264e+01  9.79949845e+01  2.72e-11 1.82e-12  3.76e-06     0s
  14   9.80132041e+01  9.80127482e+01  3.17e-12 1.82e-12  6.75e-08     0s
  15   9.80129933e+01  9.80129928e+01  5.13e-12 3.64e-12  6.92e-11     0s

Barrier solved model in 15 iterations and 0.04 seconds (0.03 work units)
Optimal objective 9.80129933e+01

Crossover log...

     589 DPushes remaining with DInf 0.0000000e+00                 0s
       0 DPushes remaining with DInf 0.0000000e+00                 0s

      88 PPushes remaining with PInf 0.0000000e+00                 0s
       0 PPushes remaining with PInf 0.0000000e+00                 0s

  Push phase complete: Pinf 0.0000000e+00, Dinf 2.2662617e-13      0s

Iteration    Objective       Primal Inf.    Dual Inf.      Time
     125    9.8012993e+01   0.000000e+00   0.000000e+00      0s

Solved in 125 iterations and 0.05 seconds (0.03 work units)
Optimal objective  9.801299306e+01
